199 127 13 41 150 22 130 35 161 12 73 102 190 198 49 68 188 88 97 136 116 61 15 11 7 179 62 165 2 174 38 75 47 168 108 183 66 155 173 144 147 0 58 118 131 64 124 18 181 140 17 197 32 117 180 92 56 31 98 4 171 196 156 164 8 143 70 36 139 126 86 78 85 177 115 55 191 67 170 189 129 16 46 94 74 110 43 145 69 10 103 185 100 123 182 57 159 172 151 142 51 149 80 3 24 166 81 106 137 178 52 91 1 87 158 146 84 175 184 45 195 187 125 119 93 163 28 44 133 148 83 122 186 39 109 21 9 71 99 59 112 5 53 29 128 194 37 54 79 176 25 77 111 95 40 167 154 138 30 89 114 101 153 162 72 132 152 192 121 135 104 120 42 48 14 96 141 26 160 6 60 20 23 157 90 50 76 65 169 193 134 63 19 27 113 82 107 105 33 34 

